NAME : rc_201.1.4445425.tour
COMMENT : Length = 4445425
COMMENT : Found by LKH [Keld Helsgaun] Tue May  2 05:21:39 2017
TYPE : TOUR
DIMENSION : 20
TOUR_SECTION
1
15
19
14
10
6
5
7
9
8
17
20
12
18
2
11
4
13
3
16
-1
EOF
